Solving original (integer) problem with strategy gdp.hull_exact...
--- Job model.gms Start 02/15/26 02:28:05 52.2.0 d8e408be LEX-LEG x86 64bit/Linux
--- Applying:
    /package/gams/52.2/gmsprmun.txt
--- GAMS Parameters defined
    Input /local/scratch/a/sgusev/repos/k_means/data/gams_gurobi_gdp.hull_exact/no_mode/2026-02-15_02-28-04/original/model.gms
    Output /local/scratch/a/sgusev/repos/k_means/data/gams_gurobi_gdp.hull_exact/no_mode/2026-02-15_02-28-04/original/output.lst
    ScrDir /local/scratch/a/sgusev/repos/k_means/data/gams_gurobi_gdp.hull_exact/no_mode/2026-02-15_02-28-04/original/225a/
    SysDir /package/gams/52.2/
    CurDir /local/scratch/a/sgusev/repos/k_means/data/gams_gurobi_gdp.hull_exact/no_mode/2026-02-15_02-28-04/original/
    LogOption 3
    AppendLog 1
Licensee: David Bernal / SECQUOIA Research Group         G251008+0003Ac-GEN
          Purdue University, Davidson School of Chemical EngineeringDCE4838
          225a/gamslice.dat
          5a82958a-fbca-4a23
          node:66820903 mem:995 cores:48 ipport:60993 v:2                  
          Evaluation license: Not for commercial or production use
          The time-limited license stops working on : Jun 30, 2027
System information: 48 physical cores and 995 Gb physical memory detected
GAMS 52.2.0   Copyright (C) 1987-2025 GAMS Development. All rights reserved
--- Starting compilation
--- model.gms(5847) 2 Mb
--- $echo File /local/scratch/a/sgusev/repos/k_means/data/gams_gurobi_gdp.hull_exact/no_mode/2026-02-15_02-28-04/original/gurobi.opt
--- model.gms(8518) 3 Mb
--- Starting execution: elapsed 0:00:00.029
--- model.gms(5856) 4 Mb
--- Generating MINLP model GAMS_MODEL
--- model.gms(5860) 6 Mb
---   1,786 rows  819 columns  4,325 non-zeroes
---   2,730 nl-code  455 nl-non-zeroes
---   65 discrete-columns
--- Range statistics (absolute non-zero finite values)
--- RHS       [min, max] : [ 1.000E+00, 1.000E+00] - Zero values observed as well
--- Bound     [min, max] : [ 1.000E+00, 1.300E+02] - Zero values observed as well
--- Matrix    [min, max] : [ 1.000E+00, 1.300E+02] - Zero values observed as well
--- model.gms(5860) 4 Mb
--- Executing GUROBI (Solvelink=5): elapsed 0:00:00.038
Reading parameter(s) from "/local/scratch/a/sgusev/repos/k_means/data/gams_gurobi_gdp.hull_exact/no_mode/2026-02-15_02-28-04/original/gurobi.opt"
>>  NonConvex 2
>>  Threads 1
>>  MIPGap 1e-06
>>  MIPGapAbs 1e-10
>>  FeasibilityTol 1e-06
>>  OptimalityTol 1e-06
>>  IntFeasTol 1e-05
Finished reading from "/local/scratch/a/sgusev/repos/k_means/data/gams_gurobi_gdp.hull_exact/no_mode/2026-02-15_02-28-04/original/gurobi.opt"

... GRB_LICENSE_FILE = /local/scratch/a/sgusev/gurobi.lic

    Gurobi           52.2.0 d8e408be Dec 8, 2025           LEG x86 64bit/Linux    

... GAMS/Gurobi Link license.
... GMO Q Extraction (ThreePass): 0.00s

    Gurobi Optimizer version 13.0.0 build v13.0.0rc1 (linux64 - "Oracle Linux Server 9.7")
    
    CPU model: AMD EPYC 7643 48-Core Processor, instruction set [SSE2|AVX|AVX2]
    Thread count: 48 physical cores, 96 logical processors, using up to 1 threads
    
    Non-default parameters:
    TimeLimit  300
    MIPGap  1e-06
    LogToConsole  0
    NonConvex  2
    Threads  1
    
    Optimize a model with 1720 rows, 818 columns and 3856 nonzeros (Min)
    Model fingerprint: 0xaefe18a7
    Model has 13 linear objective coefficients
    Model has 65 quadratic constraints
    Variable types: 753 continuous, 65 integer (0 binary)
    Coefficient statistics:
      Matrix range     [1e+00, 1e+02]
      QMatrix range    [3e-04, 2e+00]
      Objective range  [1e+00, 1e+00]
      Bounds range     [1e+00, 1e+02]
      RHS range        [1e+00, 1e+00]
    Presolve removed 325 rows and 338 columns
    Presolve time: 0.01s
    Presolved: 2080 rows, 1195 columns, 5698 nonzeros
    Presolved model has 325 quadratic constraint(s)
    Variable types: 1130 continuous, 65 integer (65 binary)
    
    Root relaxation: objective 0.000000e+00, 501 iterations, 0.01 seconds (0.01 work units)
    
        Nodes    |    Current Node    |     Objective Bounds      |     Work
     Expl Unexpl |  Obj  Depth IntInf | Incumbent    BestBd   Gap | It/Node Time
    
         0     0    0.00000    0    6          -    0.00000      -     -    0s
    H    0     0                      12.0283076    0.00000   100%     -    0s
         0     0    0.00000    0    4   12.02831    0.00000   100%     -    0s
         0     0    0.00000    0   12   12.02831    0.00000   100%     -    0s
    H    0     0                       9.9642813    0.00000   100%     -    0s
         0     0    0.00000    0   25    9.96428    0.00000   100%     -    0s
         0     0    0.00000    0   25    9.96428    0.00000   100%     -    0s
         0     0    0.00000    0    2    9.96428    0.00000   100%     -    0s
         0     0    0.00000    0    2    9.96428    0.00000   100%     -    0s
         0     0    0.00000    0   19    9.96428    0.00000   100%     -    0s
         0     0    0.00000    0    2    9.96428    0.00000   100%     -    0s
         0     0    0.00000    0   16    9.96428    0.00000   100%     -    0s
         0     0    0.00000    0   12    9.96428    0.00000   100%     -    0s
         0     0    0.00000    0   20    9.96428    0.00000   100%     -    0s
         0     0    0.00000    0    2    9.96428    0.00000   100%     -    0s
         0     0    0.00000    0   24    9.96428    0.00000   100%     -    0s
         0     0    0.00000    0    2    9.96428    0.00000   100%     -    0s
         0     0    0.00000    0   12    9.96428    0.00000   100%     -    0s
         0     0    0.00000    0    4    9.96428    0.00000   100%     -    0s
         0     0    0.00000    0   16    9.96428    0.00000   100%     -    0s
         0     0    0.00000    0    8    9.96428    0.00000   100%     -    0s
         0     0    0.00000    0   18    9.96428    0.00000   100%     -    0s
         0     0    0.00000    0    4    9.96428    0.00000   100%     -    0s
         0     0    0.00000    0   17    9.96428    0.00000   100%     -    0s
         0     0    0.00000    0   16    9.96428    0.00000   100%     -    0s
         0     0    0.00000    0   19    9.96428    0.00000   100%     -    0s
         0     0    0.00000    0   18    9.96428    0.00000   100%     -    0s
         0     0    0.00000    0   18    9.96428    0.00000   100%     -    0s
         0     0    0.00000    0   10    9.96428    0.00000   100%     -    0s
         0     0    0.00000    0   16    9.96428    0.00000   100%     -    0s
         0     0    0.00000    0   10    9.96428    0.00000   100%     -    0s
         0     0    0.00000    0   12    9.96428    0.00000   100%     -    0s
         0     0    0.00000    0   12    9.96428    0.00000   100%     -    0s
         0     0    0.00000    0   16    9.96428    0.00000   100%     -    0s
         0     0    0.00000    0   15    9.96428    0.00000   100%     -    0s
         0     0    0.00000    0   14    9.96428    0.00000   100%     -    0s
         0     0    0.00000    0   12    9.96428    0.00000   100%     -    0s
         0     0    0.00000    0   14    9.96428    0.00000   100%     -    0s
         0     0    0.00000    0   14    9.96428    0.00000   100%     -    0s
         0     0    0.00000    0   14    9.96428    0.00000   100%     -    0s
         0     0    0.00000    0   10    9.96428    0.00000   100%     -    0s
         0     0    0.00000    0   20    9.96428    0.00000   100%     -    0s
         0     0    0.00000    0   20    9.96428    0.00000   100%     -    0s
         0     0    0.00000    0   18    9.96428    0.00000   100%     -    0s
         0     0    0.00000    0   18    9.96428    0.00000   100%     -    0s
         0     0    0.00000    0   20    9.96428    0.00000   100%     -    0s
         0     0    0.00000    0   16    9.96428    0.00000   100%     -    0s
         0     0    0.00000    0   14    9.96428    0.00000   100%     -    0s
         0     0    0.00000    0    6    9.96428    0.00000   100%     -    0s
         0     0    0.00000    0   22    9.96428    0.00000   100%     -    0s
         0     0    0.00000    0   14    9.96428    0.00000   100%     -    0s
         0     0    0.00000    0   15    9.96428    0.00000   100%     -    0s
         0     0    0.00000    0   14    9.96428    0.00000   100%     -    0s
         0     0    0.00000    0   17    9.96428    0.00000   100%     -    0s
         0     0    0.00000    0   12    9.96428    0.00000   100%     -    0s
         0     0    0.00000    0   18    9.96428    0.00000   100%     -    0s
         0     0    0.00000    0   18    9.96428    0.00000   100%     -    0s
         0     0    0.00000    0   18    9.96428    0.00000   100%     -    0s
         0     0    0.00000    0   18    9.96428    0.00000   100%     -    0s
         0     0    0.00000    0   21    9.96428    0.00000   100%     -    1s
         0     0    0.00000    0   14    9.96428    0.00000   100%     -    1s
         0     0    0.00000    0   20    9.96428    0.00000   100%     -    1s
         0     0    0.00000    0   12    9.96428    0.00000   100%     -    1s
         0     0    0.00000    0   16    9.96428    0.00000   100%     -    1s
         0     0    0.00000    0    2    9.96428    0.00000   100%     -    1s
         0     0    0.00000    0   18    9.96428    0.00000   100%     -    1s
         0     0    0.00000    0   10    9.96428    0.00000   100%     -    1s
         0     0    0.00000    0   14    9.96428    0.00000   100%     -    1s
         0     0    0.00000    0   14    9.96428    0.00000   100%     -    1s
         0     0    0.00000    0   16    9.96428    0.00000   100%     -    1s
         0     0    0.00000    0   12    9.96428    0.00000   100%     -    1s
         0     0    0.00000    0   16    9.96428    0.00000   100%     -    1s
         0     0    0.00000    0   12    9.96428    0.00000   100%     -    1s
         0     0    0.00000    0   12    9.96428    0.00000   100%     -    1s
         0     0    0.00000    0   12    9.96428    0.00000   100%     -    1s
         0     0    0.00000    0   18    9.96428    0.00000   100%     -    1s
         0     0    0.00000    0    6    9.96428    0.00000   100%     -    1s
         0     0    0.00000    0   16    9.96428    0.00000   100%     -    1s
         0     0    0.00000    0   11    9.96428    0.00000   100%     -    1s
         0     0    0.00000    0   18    9.96428    0.00000   100%     -    1s
         0     0    0.00000    0   14    9.96428    0.00000   100%     -    1s
         0     0    0.00000    0   10    9.96428    0.00000   100%     -    1s
         0     0    0.00000    0   10    9.96428    0.00000   100%     -    1s
         0     0    0.00000    0   16    9.96428    0.00000   100%     -    1s
         0     0    0.00000    0   12    9.96428    0.00000   100%     -    1s
         0     0    0.00000    0   20    9.96428    0.00000   100%     -    1s
         0     0    0.00000    0   12    9.96428    0.00000   100%     -    1s
         0     0    0.00000    0   18    9.96428    0.00000   100%     -    1s
         0     0    0.00000    0   16    9.96428    0.00000   100%     -    1s
         0     0    0.00000    0   18    9.96428    0.00000   100%     -    1s
         0     0    0.00000    0   13    9.96428    0.00000   100%     -    1s
         0     0    0.00000    0   16    9.96428    0.00000   100%     -    1s
         0     0    0.00000    0   14    9.96428    0.00000   100%     -    1s
         0     0    0.00000    0   18    9.96428    0.00000   100%     -    1s
         0     0    0.00000    0   18    9.96428    0.00000   100%     -    1s
         0     0    0.00000    0   18    9.96428    0.00000   100%     -    1s
         0     0    0.00000    0   18    9.96428    0.00000   100%     -    1s
         0     0    0.00000    0   18    9.96428    0.00000   100%     -    1s
         0     0    0.00000    0    6    9.96428    0.00000   100%     -    1s
         0     0    0.00000    0   20    9.96428    0.00000   100%     -    1s
         0     0    0.00000    0   12    9.96428    0.00000   100%     -    1s
         0     0    0.00000    0   12    9.96428    0.00000   100%     -    1s
         0     0    0.00000    0   12    9.96428    0.00000   100%     -    1s
         0     0    0.00000    0   16    9.96428    0.00000   100%     -    1s
         0     0    0.00000    0   10    9.96428    0.00000   100%     -    1s
         0     0    0.00000    0   20    9.96428    0.00000   100%     -    1s
         0     0    0.00000    0   14    9.96428    0.00000   100%     -    1s
         0     0    0.00000    0   16    9.96428    0.00000   100%     -    1s
         0     0    0.00000    0   16    9.96428    0.00000   100%     -    1s
         0     0    0.00000    0   18    9.96428    0.00000   100%     -    1s
         0     0    0.00000    0   18    9.96428    0.00000   100%     -    1s
         0     0    0.00000    0   16    9.96428    0.00000   100%     -    1s
         0     0    0.00000    0   14    9.96428    0.00000   100%     -    1s
         0     0    0.00000    0   14    9.96428    0.00000   100%     -    1s
         0     0    0.00000    0   12    9.96428    0.00000   100%     -    1s
         0     0    0.00000    0   16    9.96428    0.00000   100%     -    1s
         0     0    0.00000    0   10    9.96428    0.00000   100%     -    1s
         0     0    0.00000    0   16    9.96428    0.00000   100%     -    1s
         0     0    0.00000    0   16    9.96428    0.00000   100%     -    2s
         0     0    0.00000    0   16    9.96428    0.00000   100%     -    2s
         0     0    0.00000    0   16    9.96428    0.00000   100%     -    2s
         0     0    0.00000    0   14    9.96428    0.00000   100%     -    2s
         0     0    0.00000    0    8    9.96428    0.00000   100%     -    2s
         0     0    0.00000    0   14    9.96428    0.00000   100%     -    2s
         0     0    0.00000    0   14    9.96428    0.00000   100%     -    2s
         0     0    0.00000    0   14    9.96428    0.00000   100%     -    2s
         0     0    0.00000    0   12    9.96428    0.00000   100%     -    2s
         0     0    0.00000    0   14    9.96428    0.00000   100%     -    2s
         0     0    0.00000    0    8    9.96428    0.00000   100%     -    2s
         0     0    0.00000    0   14    9.96428    0.00000   100%     -    2s
         0     0    0.00000    0   14    9.96428    0.00000   100%     -    2s
         0     0    0.00000    0   14    9.96428    0.00000   100%     -    2s
         0     0    0.00000    0   14    9.96428    0.00000   100%     -    2s
         0     0    0.00000    0   16    9.96428    0.00000   100%     -    2s
         0     0    0.00000    0   10    9.96428    0.00000   100%     -    2s
         0     0    0.00000    0   12    9.96428    0.00000   100%     -    2s
         0     0    0.00000    0   12    9.96428    0.00000   100%     -    2s
         0     0    0.00000    0   15    9.96428    0.00000   100%     -    2s
         0     0    0.00000    0   15    9.96428    0.00000   100%     -    2s
         0     0    0.00000    0   18    9.96428    0.00000   100%     -    2s
         0     0    0.00000    0   18    9.96428    0.00000   100%     -    2s
         0     0    0.00000    0   18    9.96428    0.00000   100%     -    2s
         0     0    0.00000    0   14    9.96428    0.00000   100%     -    2s
         0     0    0.00000    0   12    9.96428    0.00000   100%     -    2s
         0     0    0.00000    0   12    9.96428    0.00000   100%     -    2s
         0     0    0.00000    0   18    9.96428    0.00000   100%     -    2s
         0     0    0.00000    0   16    9.96428    0.00000   100%     -    2s
         0     0    0.00000    0   24    9.96428    0.00000   100%     -    2s
         0     0    0.00000    0   18    9.96428    0.00000   100%     -    2s
         0     0    0.00000    0   21    9.96428    0.00000   100%     -    2s
         0     0    0.00000    0   11    9.96428    0.00000   100%     -    2s
         0     0    0.00000    0   14    9.96428    0.00000   100%     -    2s
         0     0    0.00000    0   12    9.96428    0.00000   100%     -    2s
         0     0    0.00000    0   12    9.96428    0.00000   100%     -    2s
         0     0    0.00000    0    6    9.96428    0.00000   100%     -    2s
         0     0    0.00000    0   14    9.96428    0.00000   100%     -    2s
         0     0    0.00000    0    6    9.96428    0.00000   100%     -    2s
         0     0    0.00000    0   16    9.96428    0.00000   100%     -    2s
         0     0    0.00000    0   16    9.96428    0.00000   100%     -    2s
         0     0    0.00000    0   14    9.96428    0.00000   100%     -    2s
         0     0    0.00000    0   14    9.96428    0.00000   100%     -    2s
         0     0    0.00000    0   20    9.96428    0.00000   100%     -    2s
         0     0    0.00000    0   11    9.96428    0.00000   100%     -    2s
         0     0    0.00000    0   12    9.96428    0.00000   100%     -    2s
         0     0    0.00000    0   12    9.96428    0.00000   100%     -    2s
         0     0    0.00000    0   16    9.96428    0.00000   100%     -    2s
         0     0    0.00000    0   10    9.96428    0.00000   100%     -    2s
         0     0    0.00000    0   14    9.96428    0.00000   100%     -    2s
         0     0    0.00000    0   14    9.96428    0.00000   100%     -    2s
         0     0    0.00000    0   18    9.96428    0.00000   100%     -    2s
         0     0    0.00000    0   16    9.96428    0.00000   100%     -    2s
         0     0    0.00000    0   16    9.96428    0.00000   100%     -    2s
         0     0    0.00000    0   16    9.96428    0.00000   100%     -    2s
         0     0    0.00000    0   16    9.96428    0.00000   100%     -    2s
         0     0    0.00000    0   16    9.96428    0.00000   100%     -    3s
         0     0    0.00000    0   24    9.96428    0.00000   100%     -    3s
         0     0    0.00000    0   18    9.96428    0.00000   100%     -    3s
         0     0    0.00000    0   18    9.96428    0.00000   100%     -    3s
         0     0    0.00000    0   14    9.96428    0.00000   100%     -    3s
         0     0    0.00000    0   16    9.96428    0.00000   100%     -    3s
         0     0    0.00000    0   14    9.96428    0.00000   100%     -    3s
         0     0    0.00000    0   22    9.96428    0.00000   100%     -    3s
         0     0    0.00000    0   10    9.96428    0.00000   100%     -    3s
         0     0    0.00000    0   18    9.96428    0.00000   100%     -    3s
         0     0    0.00000    0   18    9.96428    0.00000   100%     -    3s
         0     0    0.00000    0   18    9.96428    0.00000   100%     -    3s
         0     0    0.00000    0   12    9.96428    0.00000   100%     -    3s
         0     0    0.00000    0   14    9.96428    0.00000   100%     -    3s
         0     0    0.00000    0   14    9.96428    0.00000   100%     -    3s
         0     0    0.00000    0   20    9.96428    0.00000   100%     -    3s
         0     0    0.00000    0   11    9.96428    0.00000   100%     -    3s
         0     0    0.00000    0   18    9.96428    0.00000   100%     -    3s
         0     0    0.00000    0   16    9.96428    0.00000   100%     -    3s
         0     0    0.00000    0   17    9.96428    0.00000   100%     -    3s
         0     0    0.00000    0   17    9.96428    0.00000   100%     -    3s
         0     0    0.00000    0   17    9.96428    0.00000   100%     -    3s
         0     0    0.00000    0   13    9.96428    0.00000   100%     -    3s
         0     0    0.00000    0   14    9.96428    0.00000   100%     -    3s
         0     0    0.00000    0   12    9.96428    0.00000   100%     -    3s
         0     0    0.00000    0   22    9.96428    0.00000   100%     -    3s
         0     0    0.00000    0    8    9.96428    0.00000   100%     -    3s
         0     0    0.00000    0   16    9.96428    0.00000   100%     -    3s
         0     0    0.00000    0   14    9.96428    0.00000   100%     -    3s
         0     0    0.00000    0   16    9.96428    0.00000   100%     -    3s
         0     0    0.00000    0   16    9.96428    0.00000   100%     -    3s
    H    0     0                       9.6050239    0.00000   100%     -    3s
    H    0     0                       8.7504087    0.00000   100%     -    3s
         0     2    0.00000    0   12    8.75041    0.00000   100%     -    3s
    H    6     6                       7.2103496    0.00000   100%   320    3s
    H    8     8                       7.2097707    0.00000   100%   362    3s
    H   12    12                       7.2097705    0.00000   100%   324    4s
    H   15    15                       7.1918763    0.00000   100%   310    4s
    H   15    15                       7.0852128    0.00000   100%   310    4s
    H   19    19                       7.0850910    0.00000   100%   299    4s
    H   19    19                       7.0705536    0.00000   100%   299    4s
    H   23    23                       7.0705518    0.00000   100%   280    4s
    H   23    23                       7.0640448    0.00000   100%   280    4s
    H   28    28                       7.0295465    0.00000   100%   259    4s
    H   28    28                       7.0295464    0.00000   100%   259    4s
    H   33    33                       7.0295464    0.00000   100%   255    4s
    H   37    37                       7.0295463    0.00000   100%   247    4s
    H   37    37                       7.0165847    0.00000   100%   247    4s
    H   49    49                       6.7869575    0.00000   100%   221    4s
    H   63    53                       6.7869570    0.00000   100%   186    4s
    H   69    59                       6.7869569    0.00000   100%   208    4s
    H   69    59                       6.7831919    0.00000   100%   208    4s
    H   98    88                       6.7831914    0.00000   100%   217    4s
       123   101    0.00000    9   16    6.78319    0.00000   100%   208    5s
    H  126   102                       6.7831899    0.00000   100%   208    5s
    H  126   102                       6.7376918    0.00000   100%   208    5s
    H  129   105                       6.6453256    0.00000   100%   209    5s
    H  133   109                       6.6453248    0.00000   100%   209    5s
    H  138   113                       6.5216109    0.00000   100%   211    5s
    H  144   119                       6.5179073    0.00000   100%   206    5s
    H  144   119                       6.4962430    0.00000   100%   206    5s
    H  158   131                       6.4962420    0.00000   100%   192    5s
    H  158   130                       6.4913824    0.00000   100%   192    5s
    H  175   137                       6.3107862    0.00000   100%   178    5s
    H  179   141                       6.3107850    0.00000   100%   178    5s
    H  179   141                       6.3095792    0.00000   100%   178    5s
    H  183   145                       6.2979475    0.00000   100%   177    5s
    H  221   169                       6.2979475    0.00000   100%   157    5s
    H  227   175                       6.2722704    0.00000   100%   156    5s
    H  286   210                       6.2722704    0.00000   100%   136    5s
    H  314   219                       6.1992954    0.00000   100%   127    6s
       349   243    4.26146   26   24    6.19930    0.00000   100%   115   10s
       407   281    2.91074   28   29    6.19930    0.00000   100%  98.3   15s
    H  413   269                       6.1992937    0.00000   100%  96.9   16s
    H  418   257                       6.1992937    0.00000   100%   383   16s
    H  419   243                       6.1992933    0.00000   100%   383   16s
    H  420   230                       6.1992928    0.00000   100%   382   16s
    H  425   220                       6.1992924    0.00000   100%   381   16s
    H  428   209                       6.1992924    0.00000   100%   381   17s
    H  430   200                       6.1992923    0.00000   100%   381   17s
    H  435   191                       6.1992922    0.00000   100%   380   17s
    H  435   181                       6.1992922    0.00000   100%   380   17s
    H  450   181                       6.1992922    0.00000   100%   377   18s
    H  455   173                       6.1992922    0.00000   100%   376   18s
    H  462   167                       6.1992921    0.00000   100%   374   18s
    H  463   158                       6.1992917    0.00000   100%   373   19s
       488   159    0.60976   15   28    6.19929    0.00000   100%   359   20s
    H  491   151                       6.0693159    0.00000   100%   358   20s
    H  491   143                       6.0288376    0.00000   100%   358   20s
    H  498   140                       6.0288369    0.00000   100%   356   20s
    H  498   133                       6.0288358    0.00000   100%   356   20s
    H  499   128                       6.0288355    0.00000   100%   356   20s
    H  499   121                       6.0288354    0.00000   100%   356   20s
    H  502   117                       6.0288352    0.00000   100%   356   20s
    H  502   111                       6.0288350    0.00000   100%   356   20s
    H  507   109                       6.0288350    0.00000   100%   356   21s
    H  512   107                       6.0288349    0.00000   100%   354   21s
    H  512   102                       6.0288347    0.00000   100%   354   21s
    H  521   103                       6.0288347    0.00000   100%   349   21s
    H  563   107                       6.0288346    0.00000   100%   328   21s
    H  808   301                       5.9010979    0.00000   100%   304   24s
       808   303    0.58493   20   29    5.90110    0.00000   100%   305   25s
    H  814   307                       5.9010974    0.00000   100%   307   25s
    H  814   307                       5.9010963    0.00000   100%   307   25s
    H  937   392                       5.9010962    0.00000   100%   305   26s
    H  991   434                       5.9010960    0.00000   100%   300   26s
    H 1207   567                       5.3616892    0.00000   100%   296   29s
    H 1232   578                       5.3616888    0.00000   100%   295   29s
    H 1232   575                       5.3565399    0.00000   100%   295   29s
    H 1280   608                       5.3565397    0.00000   100%   290   29s
    H 1280   608                       5.2799076    0.00000   100%   290   29s
      1297   627    2.38939   30   21    5.27991    0.00000   100%   290   30s
    H 1337   655                       5.2583950    0.00000   100%   289   30s
    H 1374   678                       5.1845081    0.00000   100%   286   30s
    H 1374   678                       5.1845080    0.00000   100%   286   30s
    H 1404   689                       5.1567010    0.00000   100%   286   30s
    H 1430   707                       5.1567009    0.00000   100%   286   31s
    H 1430   707                       5.1566999    0.00000   100%   286   31s
      1777   936 infeasible   36         5.15670    0.00000   100%   288   35s
    H 1859   985                       5.1566998    0.00000   100%   290   36s
    H 2047  1106                       5.1566998    0.00000   100%   295   38s
    H 2139  1156                       5.1566998    0.00000   100%   297   39s
    H 2157  1166                       5.1566998    0.00000   100%   299   39s
      2158  1169    0.00000   26   25    5.15670    0.00000   100%   300   40s
      2583  1414    3.56709   33   30    5.15670    0.00000   100%   305   45s
    H 2633  1443                       5.1566997    0.00000   100%   305   45s
      3024  1660    0.00000   21   38    5.15670    0.00000   100%   307   50s
      3391  1880    3.85017   33   21    5.15670    0.00000   100%   317   55s
    H 3631  2000                       5.1566997    0.00000   100%   315   57s
    H 3902  2162                       5.1566997    0.00000   100%   315   60s
      4394  2440    3.13087   26   24    5.15670    0.00855   100%   314   65s
    H 4796  2643                       5.1566997    0.02055   100%   309   68s
      4979  2746    2.41630   33   22    5.15670    0.02538   100%   308   70s
      5721  3134    0.41533   20   29    5.15670    0.04847  99.1%   303   75s
      6434  3483    1.44668   23   26    5.15670    0.07055  98.6%   299   80s
      7186  3872    4.16140   29   23    5.15670    0.11204  97.8%   297   85s
      7952  4274    4.95571   30   23    5.15670    0.14831  97.1%   294   90s
      8836  4698    0.19112   23   29    5.15670    0.19112  96.3%   289   95s
      9703  5116    4.94563   33   17    5.15670    0.21904  95.8%   285  100s
     10503  5532    0.65977   24   31    5.15670    0.23649  95.4%   283  105s
     11382  5959    2.29915   20   29    5.15670    0.26489  94.9%   279  110s
     12262  6370    2.97516   27   20    5.15670    0.28710  94.4%   276  115s
     12975  6764    3.07102   31   24    5.15670    0.30872  94.0%   276  120s
     13832  7140    3.16522   26   30    5.15670    0.33195  93.6%   274  125s
     14782  7573    2.35299   24   26    5.15670    0.36495  92.9%   270  130s
     15754  8017    0.87729   25   23    5.15670    0.39493  92.3%   266  135s
     16561  8411    2.49035   23   23    5.15670    0.41190  92.0%   266  140s
     17455  8774    3.74444   26   24    5.15670    0.43313  91.6%   263  145s
     18224  9168    0.65420   21   26    5.15670    0.45491  91.2%   262  150s
     19024  9541    4.55925   34   19    5.15670    0.47399  90.8%   261  155s
     19822  9902    5.12309   34   10    5.15670    0.49588  90.4%   260  160s
     20655 10249     cutoff   27         5.15670    0.51784  90.0%   258  165s
     21566 10655    2.94575   34   24    5.15670    0.54123  89.5%   257  170s
     22464 11036    1.65931   25   28    5.15670    0.56628  89.0%   256  175s
     23331 11385    2.62385   30   29    5.15670    0.59174  88.5%   255  180s
     24313 11770    2.71813   25   25    5.15670    0.61767  88.0%   253  185s
    H24928 11696                       4.9290517    0.63329  87.2%   251  187s
     25420 11909    2.21991   28   21    4.92905    0.64513  86.9%   250  190s
     26316 12288    3.55326   39   22    4.92905    0.67257  86.4%   249  195s
     27174 12580    0.80584   20   29    4.92905    0.69932  85.8%   249  200s
     28074 12932    0.86977   17   30    4.92905    0.73044  85.2%   248  205s
     28912 13252    4.44404   35   18    4.92905    0.75873  84.6%   248  210s
     29830 13563     cutoff   32         4.92905    0.78701  84.0%   247  215s
     30851 13938    3.56124   23   22    4.92905    0.81544  83.5%   245  220s
     31726 14282    2.80351   27   26    4.92905    0.83806  83.0%   245  225s
     32738 14650    2.60010   26   29    4.92905    0.86865  82.4%   244  230s
     33696 15012    3.34894   35   23    4.92905    0.89377  81.9%   243  235s
     34666 15411    1.45714   24   28    4.92905    0.91159  81.5%   242  240s
     35585 15735    1.66389   26   26    4.92905    0.94190  80.9%   241  245s
     36535 16112    3.88441   32   19    4.92905    0.96489  80.4%   240  250s
     37427 16463    3.90220   29   27    4.92905    0.98257  80.1%   240  255s
     38377 16799    2.67073   23   28    4.92905    1.00713  79.6%   238  260s
     39376 17169    2.95420   30   24    4.92905    1.02603  79.2%   237  265s
     40327 17540    3.99628   27   25    4.92905    1.04933  78.7%   237  270s
     41422 17914    2.42344   22   28    4.92905    1.08250  78.0%   235  275s
     42430 18267    2.86697   28   29    4.92905    1.11810  77.3%   234  280s
     43478 18634    1.28257   26   28    4.92905    1.14268  76.8%   233  285s
     44442 18971    4.65522   31   18    4.92905    1.16430  76.4%   232  290s
     45400 19269    2.71742   27   27    4.92905    1.18150  76.0%   232  295s
     46462 19621    2.67850   30   24    4.92905    1.20046  75.6%   231  300s
    
    Cutting planes:
      MIR: 1
      Flow cover: 11
    
    Explored 46463 nodes (10818377 simplex iterations) in 300.00 seconds (324.35 work units)
    Thread count was 1 (of 96 available processors)
    
    Solution count 10: 4.92905 5.1567 5.35654 ... 7.19188
    
    Time limit reached
    Best objective 4.929051690403e+00, best bound 1.200459885413e+00, gap 75.6452%
    
    User-callback calls 46655, time in user-callback 0.00 sec

--- Reading solution for model GAMS_MODEL
***
*** Solver did not provide marginals for model GAMS_MODEL
***
--- Executing after solve: elapsed 0:05:00.094
--- model.gms(5863) 4 Mb
--- model.gms(8518) 6 Mb
--- Putfile results /local/scratch/a/sgusev/repos/k_means/data/gams_gurobi_gdp.hull_exact/no_mode/2026-02-15_02-28-04/original/results.dat
--- Putfile statresults /local/scratch/a/sgusev/repos/k_means/data/gams_gurobi_gdp.hull_exact/no_mode/2026-02-15_02-28-04/original/resultsstat.dat
*** Status: Normal completion
--- Job model.gms Stop 02/15/26 02:33:05 elapsed 0:05:00.098
Original problem solved. Time taken: 300.7791848182678 seconds
Original objective value: 4.929051690403119
